%%% static parameters %%%
timespan = 1;
Fact = [4];
Distr1 = [15];
Distr2 = [30];
Clients_N = [1000];
Demand_W = [15];
Lt0 = [4];
Lt1 = [4];
SS_ = [0.85];
DS_D = [8];
K = [200];
MA = [500];
%%% dynamic parameters %%%
lost_ratio_sales_ret_th = 0.020124062419912936;
lost_ratio_sales_ret_w = 5;
lost_ratio_sales_dis_th = 0.9251312672765704;
lost_ratio_sales_dis_w = 77;
lost_ratio_sales_fac_th = 0.6774572644008406;
lost_ratio_sales_fac_w = 53;
stock_customer_MA_mean_relative_th = 0.17034253243950315;
stock_customer_MA_mean_relative_w = 82;
stock_distributor_MA_mean_relative_th = 0.2511874824289235;
stock_distributor_MA_mean_relative_w = 72;
stock_retailer_MA_mean_relative_th = 0.05571734625994984;
stock_retailer_MA_mean_relative_w = 47;
stock_factory_MA_mean_relative_th = 0.33884808121077625;
stock_factory_MA_mean_relative_w = 26;
